c 4 __LINUXTHREADS_OLD__
c 7 __UCLIBC_MALLOC_DEBUGGING__
c 2 __UCLIBC_HAS_THREADS_NATIVE__
c 1 __UCLIBC_UCLINUX_BROKEN_MUNMAP__
c 3 __UCLIBC_HAS_XLOCALE__
c 8 __UCLIBC_HAS_LOCALE__
c 5 __MALLOC__
c 9 __LINUXTHREADS_NEW__
c 6 __UCLIBC_HAS_THREADS__
p cnf 9 1
2 -1 -4 -3 -6 -5 8 9 -7 1
